25 40
1 2 3
1 6 2
2 3 5
2 7 5
3 4 2
3 8 3
4 5 1
4 9 4
5 10 4
6 7 4
6 11 2
7 8 5
7 12 1
8 9 3
8 13 3
9 10 3
9 14 5
10 15 4
11 12 3
11 16 4
12 13 5
12 17 5
13 14 3
13 18 1
14 15 4
14 19 2
15 20 2
16 17 3
16 21 1
17 18 1
17 22 3
18 19 1
18 23 2
19 20 4
19 24 1
20 25 1
21 22 4
22 23 3
23 24 4
24 25 2
